p wcnf 268 792
w -2 0.367879 0
w 2 2.718282 0
w -3 0.367879 0
w 3 2.718282 0
w -4 0.367879 0
w 4 2.718282 0
w -5 0.367879 0
w 5 2.718282 0
w -6 0.367879 0
w 6 2.718282 0
w -8 0.367879 0
w 8 2.718282 0
w -9 0.367879 0
w 9 2.718282 0
w -10 0.367879 0
w 10 2.718282 0
w -11 0.367879 0
w 11 2.718282 0
w -12 0.367879 0
w 12 2.718282 0
w -13 0.367879 0
w 13 2.718282 0
w -14 0.367879 0
w 14 2.718282 0
w -16 0.367879 0
w 16 2.718282 0
w -17 0.367879 0
w 17 2.718282 0
w -18 0.367879 0
w 18 2.718282 0
w -19 0.367879 0
w 19 2.718282 0
w -20 0.367879 0
w 20 2.718282 0
w -21 0.367879 0
w 21 2.718282 0
w -22 0.367879 0
w 22 2.718282 0
w -24 0.367879 0
w 24 2.718282 0
w -25 0.367879 0
w 25 2.718282 0
w -26 0.367879 0
w 26 2.718282 0
w -27 0.367879 0
w 27 2.718282 0
w -28 0.367879 0
w 28 2.718282 0
w -29 0.367879 0
w 29 2.718282 0
w -30 0.367879 0
w 30 2.718282 0
w -31 0.367879 0
w 31 2.718282 0
w -33 0.367879 0
w 33 2.718282 0
w -34 0.367879 0
w 34 2.718282 0
w -35 0.367879 0
w 35 2.718282 0
w -36 0.367879 0
w 36 2.718282 0
w -37 0.367879 0
w 37 2.718282 0
w -38 0.367879 0
w 38 2.718282 0
w -40 0.367879 0
w 40 2.718282 0
w -41 0.367879 0
w 41 2.718282 0
w -42 0.367879 0
w 42 2.718282 0
w -43 0.367879 0
w 43 2.718282 0
w -44 0.367879 0
w 44 2.718282 0
w -46 0.367879 0
w 46 2.718282 0
w -47 0.367879 0
w 47 2.718282 0
w -48 0.367879 0
w 48 2.718282 0
w -49 0.367879 0
w 49 2.718282 0
w -50 0.367879 0
w 50 2.718282 0
w -51 0.367879 0
w 51 2.718282 0
w -52 0.367879 0
w 52 2.718282 0
w -54 0.367879 0
w 54 2.718282 0
w -55 0.367879 0
w 55 2.718282 0
w -56 0.367879 0
w 56 2.718282 0
w -58 0.367879 0
w 58 2.718282 0
w -59 0.367879 0
w 59 2.718282 0
w -60 0.367879 0
w 60 2.718282 0
w -61 0.367879 0
w 61 2.718282 0
w -62 0.367879 0
w 62 2.718282 0
w -63 0.367879 0
w 63 2.718282 0
w -64 0.367879 0
w 64 2.718282 0
w -65 0.367879 0
w 65 2.718282 0
w -66 0.367879 0
w 66 2.718282 0
w -68 0.367879 0
w 68 2.718282 0
w -69 0.367879 0
w 69 2.718282 0
w -70 0.367879 0
w 70 2.718282 0
w -72 0.367879 0
w 72 2.718282 0
w -73 0.367879 0
w 73 2.718282 0
w -74 0.367879 0
w 74 2.718282 0
w -75 0.367879 0
w 75 2.718282 0
w -77 0.367879 0
w 77 2.718282 0
w -78 0.367879 0
w 78 2.718282 0
w -79 0.367879 0
w 79 2.718282 0
w -80 0.367879 0
w 80 2.718282 0
w -81 0.367879 0
w 81 2.718282 0
w -82 0.367879 0
w 82 2.718282 0
w -84 0.367879 0
w 84 2.718282 0
w -85 0.367879 0
w 85 2.718282 0
w -86 0.367879 0
w 86 2.718282 0
w -87 0.367879 0
w 87 2.718282 0
w -88 0.367879 0
w 88 2.718282 0
w -90 0.367879 0
w 90 2.718282 0
w -91 0.367879 0
w 91 2.718282 0
w -93 0.367879 0
w 93 2.718282 0
w -94 0.367879 0
w 94 2.718282 0
w -95 0.367879 0
w 95 2.718282 0
w -96 0.367879 0
w 96 2.718282 0
w -97 0.367879 0
w 97 2.718282 0
w -98 0.367879 0
w 98 2.718282 0
w -100 0.367879 0
w 100 2.718282 0
w -101 0.367879 0
w 101 2.718282 0
w -102 0.367879 0
w 102 2.718282 0
w -104 0.367879 0
w 104 2.718282 0
w -105 0.367879 0
w 105 2.718282 0
w -106 0.367879 0
w 106 2.718282 0
w -107 0.367879 0
w 107 2.718282 0
w -108 0.367879 0
w 108 2.718282 0
w -110 0.367879 0
w 110 2.718282 0
w -111 0.367879 0
w 111 2.718282 0
w -112 0.367879 0
w 112 2.718282 0
w -113 0.367879 0
w 113 2.718282 0
w -114 0.367879 0
w 114 2.718282 0
w -115 0.367879 0
w 115 2.718282 0
w -116 0.367879 0
w 116 2.718282 0
w -117 0.367879 0
w 117 2.718282 0
w -119 0.367879 0
w 119 2.718282 0
w -120 0.367879 0
w 120 2.718282 0
w -122 0.367879 0
w 122 2.718282 0
w -123 0.367879 0
w 123 2.718282 0
w -124 0.367879 0
w 124 2.718282 0
w -126 0.367879 0
w 126 2.718282 0
w -127 0.367879 0
w 127 2.718282 0
w -128 0.367879 0
w 128 2.718282 0
w -129 0.367879 0
w 129 2.718282 0
w -130 0.367879 0
w 130 2.718282 0
w -132 0.367879 0
w 132 2.718282 0
w -133 0.367879 0
w 133 2.718282 0
w -135 0.367879 0
w 135 2.718282 0
w -136 0.367879 0
w 136 2.718282 0
w -137 0.367879 0
w 137 2.718282 0
w -138 0.367879 0
w 138 2.718282 0
w -139 0.367879 0
w 139 2.718282 0
w -141 0.367879 0
w 141 2.718282 0
w -143 0.367879 0
w 143 2.718282 0
w -144 0.367879 0
w 144 2.718282 0
w -145 0.367879 0
w 145 2.718282 0
w -147 0.367879 0
w 147 2.718282 0
w -149 0.367879 0
w 149 2.718282 0
w -150 0.367879 0
w 150 2.718282 0
w -151 0.367879 0
w 151 2.718282 0
w -152 0.367879 0
w 152 2.718282 0
w -153 0.367879 0
w 153 2.718282 0
w -154 0.367879 0
w 154 2.718282 0
w -157 0.367879 0
w 157 2.718282 0
w -158 0.367879 0
w 158 2.718282 0
w -160 0.367879 0
w 160 2.718282 0
w -161 0.367879 0
w 161 2.718282 0
w -163 0.367879 0
w 163 2.718282 0
w -165 0.367879 0
w 165 2.718282 0
w -166 0.367879 0
w 166 2.718282 0
w -167 0.367879 0
w 167 2.718282 0
w -168 0.367879 0
w 168 2.718282 0
w -169 0.367879 0
w 169 2.718282 0
w -171 0.367879 0
w 171 2.718282 0
w -172 0.367879 0
w 172 2.718282 0
w -173 0.367879 0
w 173 2.718282 0
w -174 0.367879 0
w 174 2.718282 0
w -175 0.367879 0
w 175 2.718282 0
w -177 0.367879 0
w 177 2.718282 0
w -178 0.367879 0
w 178 2.718282 0
w -179 0.367879 0
w 179 2.718282 0
w -181 0.367879 0
w 181 2.718282 0
w -182 0.367879 0
w 182 2.718282 0
w -183 0.367879 0
w 183 2.718282 0
w -185 0.367879 0
w 185 2.718282 0
w -187 0.367879 0
w 187 2.718282 0
w -188 0.367879 0
w 188 2.718282 0
w -190 0.367879 0
w 190 2.718282 0
w -191 0.367879 0
w 191 2.718282 0
w -192 0.367879 0
w 192 2.718282 0
w -193 0.367879 0
w 193 2.718282 0
w -194 0.367879 0
w 194 2.718282 0
w -195 0.367879 0
w 195 2.718282 0
w -197 0.367879 0
w 197 2.718282 0
w -198 0.367879 0
w 198 2.718282 0
w -200 0.367879 0
w 200 2.718282 0
w -201 0.367879 0
w 201 2.718282 0
w -202 0.367879 0
w 202 2.718282 0
w -203 0.367879 0
w 203 2.718282 0
w -205 0.367879 0
w 205 2.718282 0
w -208 0.367879 0
w 208 2.718282 0
w -209 0.367879 0
w 209 2.718282 0
w -210 0.367879 0
w 210 2.718282 0
w -211 0.367879 0
w 211 2.718282 0
w -213 0.367879 0
w 213 2.718282 0
w -214 0.367879 0
w 214 2.718282 0
w -216 0.367879 0
w 216 2.718282 0
w -217 0.367879 0
w 217 2.718282 0
w -219 0.367879 0
w 219 2.718282 0
w -220 0.367879 0
w 220 2.718282 0
w -222 0.367879 0
w 222 2.718282 0
w -223 0.367879 0
w 223 2.718282 0
w -225 0.367879 0
w 225 2.718282 0
w -226 0.367879 0
w 226 2.718282 0
w -227 0.367879 0
w 227 2.718282 0
w -228 0.367879 0
w 228 2.718282 0
w -230 0.367879 0
w 230 2.718282 0
w -231 0.367879 0
w 231 2.718282 0
w -233 0.367879 0
w 233 2.718282 0
w -234 0.367879 0
w 234 2.718282 0
w -237 0.367879 0
w 237 2.718282 0
w -239 0.367879 0
w 239 2.718282 0
w -240 0.367879 0
w 240 2.718282 0
w -241 0.367879 0
w 241 2.718282 0
w -242 0.367879 0
w 242 2.718282 0
w -247 0.367879 0
w 247 2.718282 0
w -248 0.367879 0
w 248 2.718282 0
w -250 0.367879 0
w 250 2.718282 0
w -253 0.367879 0
w 253 2.718282 0
w -255 0.367879 0
w 255 2.718282 0
w -257 0.367879 0
w 257 2.718282 0
w -259 0.367879 0
w 259 2.718282 0
w -262 0.367879 0
w 262 2.718282 0
w -264 0.367879 0
w 264 2.718282 0
2 1 71 0
2 -1 -71 0
-2 1 -71 0
-2 -1 71 0
3 1 121 0
3 -1 -121 0
-3 1 -121 0
-3 -1 121 0
4 1 125 0
4 -1 -125 0
-4 1 -125 0
-4 -1 125 0
5 1 170 0
5 -1 -170 0
-5 1 -170 0
-5 -1 170 0
6 1 260 0
6 -1 -260 0
-6 1 -260 0
-6 -1 260 0
8 7 196 0
8 -7 -196 0
-8 7 -196 0
-8 -7 196 0
9 7 199 0
9 -7 -199 0
-9 7 -199 0
-9 -7 199 0
10 7 212 0
10 -7 -212 0
-10 7 -212 0
-10 -7 212 0
11 7 218 0
11 -7 -218 0
-11 7 -218 0
-11 -7 218 0
12 7 238 0
12 -7 -238 0
-12 7 -238 0
-12 -7 238 0
13 7 245 0
13 -7 -245 0
-13 7 -245 0
-13 -7 245 0
14 7 251 0
14 -7 -251 0
-14 7 -251 0
-14 -7 251 0
16 15 71 0
16 -15 -71 0
-16 15 -71 0
-16 -15 71 0
17 15 140 0
17 -15 -140 0
-17 15 -140 0
-17 -15 140 0
18 15 142 0
18 -15 -142 0
-18 15 -142 0
-18 -15 142 0
19 15 156 0
19 -15 -156 0
-19 15 -156 0
-19 -15 156 0
20 15 221 0
20 -15 -221 0
-20 15 -221 0
-20 -15 221 0
21 15 243 0
21 -15 -243 0
-21 15 -243 0
-21 -15 243 0
22 15 251 0
22 -15 -251 0
-22 15 -251 0
-22 -15 251 0
24 23 57 0
24 -23 -57 0
-24 23 -57 0
-24 -23 57 0
25 23 67 0
25 -23 -67 0
-25 23 -67 0
-25 -23 67 0
26 23 121 0
26 -23 -121 0
-26 23 -121 0
-26 -23 121 0
27 23 170 0
27 -23 -170 0
-27 23 -170 0
-27 -23 170 0
28 23 176 0
28 -23 -176 0
-28 23 -176 0
-28 -23 176 0
29 23 215 0
29 -23 -215 0
-29 23 -215 0
-29 -23 215 0
30 23 260 0
30 -23 -260 0
-30 23 -260 0
-30 -23 260 0
31 23 266 0
31 -23 -266 0
-31 23 -266 0
-31 -23 266 0
33 32 125 0
33 -32 -125 0
-33 32 -125 0
-33 -32 125 0
34 32 134 0
34 -32 -134 0
-34 32 -134 0
-34 -32 134 0
35 32 170 0
35 -32 -170 0
-35 32 -170 0
-35 -32 170 0
36 32 176 0
36 -32 -176 0
-36 32 -176 0
-36 -32 176 0
37 32 252 0
37 -32 -252 0
-37 32 -252 0
-37 -32 252 0
38 32 261 0
38 -32 -261 0
-38 32 -261 0
-38 -32 261 0
40 39 155 0
40 -39 -155 0
-40 39 -155 0
-40 -39 155 0
41 39 204 0
41 -39 -204 0
-41 39 -204 0
-41 -39 204 0
42 39 224 0
42 -39 -224 0
-42 39 -224 0
-42 -39 224 0
43 39 229 0
43 -39 -229 0
-43 39 -229 0
-43 -39 229 0
44 39 251 0
44 -39 -251 0
-44 39 -251 0
-44 -39 251 0
46 45 103 0
46 -45 -103 0
-46 45 -103 0
-46 -45 103 0
47 45 155 0
47 -45 -155 0
-47 45 -155 0
-47 -45 155 0
48 45 180 0
48 -45 -180 0
-48 45 -180 0
-48 -45 180 0
49 45 207 0
49 -45 -207 0
-49 45 -207 0
-49 -45 207 0
50 45 235 0
50 -45 -235 0
-50 45 -235 0
-50 -45 235 0
51 45 256 0
51 -45 -256 0
-51 45 -256 0
-51 -45 256 0
52 45 261 0
52 -45 -261 0
-52 45 -261 0
-52 -45 261 0
54 53 140 0
54 -53 -140 0
-54 53 -140 0
-54 -53 140 0
55 53 159 0
55 -53 -159 0
-55 53 -159 0
-55 -53 159 0
56 53 235 0
56 -53 -235 0
-56 53 -235 0
-56 -53 235 0
58 57 76 0
58 -57 -76 0
-58 57 -76 0
-58 -57 76 0
59 57 83 0
59 -57 -83 0
-59 57 -83 0
-59 -57 83 0
60 57 140 0
60 -57 -140 0
-60 57 -140 0
-60 -57 140 0
61 57 148 0
61 -57 -148 0
-61 57 -148 0
-61 -57 148 0
62 57 186 0
62 -57 -186 0
-62 57 -186 0
-62 -57 186 0
63 57 221 0
63 -57 -221 0
-63 57 -221 0
-63 -57 221 0
64 57 235 0
64 -57 -235 0
-64 57 -235 0
-64 -57 235 0
65 57 244 0
65 -57 -244 0
-65 57 -244 0
-65 -57 244 0
66 57 260 0
66 -57 -260 0
-66 57 -260 0
-66 -57 260 0
68 67 164 0
68 -67 -164 0
-68 67 -164 0
-68 -67 164 0
69 67 196 0
69 -67 -196 0
-69 67 -196 0
-69 -67 196 0
70 67 268 0
70 -67 -268 0
-70 67 -268 0
-70 -67 268 0
72 71 140 0
72 -71 -140 0
-72 71 -140 0
-72 -71 140 0
73 71 199 0
73 -71 -199 0
-73 71 -199 0
-73 -71 199 0
74 71 244 0
74 -71 -244 0
-74 71 -244 0
-74 -71 244 0
75 71 260 0
75 -71 -260 0
-75 71 -260 0
-75 -71 260 0
77 76 134 0
77 -76 -134 0
-77 76 -134 0
-77 -76 134 0
78 76 156 0
78 -76 -156 0
-78 76 -156 0
-78 -76 156 0
79 76 206 0
79 -76 -206 0
-79 76 -206 0
-79 -76 206 0
80 76 235 0
80 -76 -235 0
-80 76 -235 0
-80 -76 235 0
81 76 244 0
81 -76 -244 0
-81 76 -244 0
-81 -76 244 0
82 76 252 0
82 -76 -252 0
-82 76 -252 0
-82 -76 252 0
84 83 140 0
84 -83 -140 0
-84 83 -140 0
-84 -83 140 0
85 83 221 0
85 -83 -221 0
-85 83 -221 0
-85 -83 221 0
86 83 224 0
86 -83 -224 0
-86 83 -224 0
-86 -83 224 0
87 83 244 0
87 -83 -244 0
-87 83 -244 0
-87 -83 244 0
88 83 256 0
88 -83 -256 0
-88 83 -256 0
-88 -83 256 0
90 89 155 0
90 -89 -155 0
-90 89 -155 0
-90 -89 155 0
91 89 186 0
91 -89 -186 0
-91 89 -186 0
-91 -89 186 0
93 92 118 0
93 -92 -118 0
-93 92 -118 0
-93 -92 118 0
94 92 125 0
94 -92 -125 0
-94 92 -125 0
-94 -92 125 0
95 92 155 0
95 -92 -155 0
-95 92 -155 0
-95 -92 155 0
96 92 170 0
96 -92 -170 0
-96 92 -170 0
-96 -92 170 0
97 92 199 0
97 -92 -199 0
-97 92 -199 0
-97 -92 199 0
98 92 238 0
98 -92 -238 0
-98 92 -238 0
-98 -92 238 0
100 99 170 0
100 -99 -170 0
-100 99 -170 0
-100 -99 170 0
101 99 229 0
101 -99 -229 0
-101 99 -229 0
-101 -99 229 0
102 99 244 0
102 -99 -244 0
-102 99 -244 0
-102 -99 244 0
104 103 109 0
104 -103 -109 0
-104 103 -109 0
-104 -103 109 0
105 103 134 0
105 -103 -134 0
-105 103 -134 0
-105 -103 134 0
106 103 224 0
106 -103 -224 0
-106 103 -224 0
-106 -103 224 0
107 103 254 0
107 -103 -254 0
-107 103 -254 0
-107 -103 254 0
108 103 261 0
108 -103 -261 0
-108 103 -261 0
-108 -103 261 0
110 109 199 0
110 -109 -199 0
-110 109 -199 0
-110 -109 199 0
111 109 207 0
111 -109 -207 0
-111 109 -207 0
-111 -109 207 0
112 109 224 0
112 -109 -224 0
-112 109 -224 0
-112 -109 224 0
113 109 238 0
113 -109 -238 0
-113 109 -238 0
-113 -109 238 0
114 109 243 0
114 -109 -243 0
-114 109 -243 0
-114 -109 243 0
115 109 244 0
115 -109 -244 0
-115 109 -244 0
-115 -109 244 0
116 109 245 0
116 -109 -245 0
-116 109 -245 0
-116 -109 245 0
117 109 251 0
117 -109 -251 0
-117 109 -251 0
-117 -109 251 0
119 118 186 0
119 -118 -186 0
-119 118 -186 0
-119 -118 186 0
120 118 218 0
120 -118 -218 0
-120 118 -218 0
-120 -118 218 0
122 121 164 0
122 -121 -164 0
-122 121 -164 0
-122 -121 164 0
123 121 224 0
123 -121 -224 0
-123 121 -224 0
-123 -121 224 0
124 121 263 0
124 -121 -263 0
-124 121 -263 0
-124 -121 263 0
126 125 159 0
126 -125 -159 0
-126 125 -159 0
-126 -125 159 0
127 125 212 0
127 -125 -212 0
-127 125 -212 0
-127 -125 212 0
128 125 218 0
128 -125 -218 0
-128 125 -218 0
-128 -125 218 0
129 125 221 0
129 -125 -221 0
-129 125 -221 0
-129 -125 221 0
130 125 235 0
130 -125 -235 0
-130 125 -235 0
-130 -125 235 0
132 131 148 0
132 -131 -148 0
-132 131 -148 0
-132 -131 148 0
133 131 189 0
133 -131 -189 0
-133 131 -189 0
-133 -131 189 0
135 134 164 0
135 -134 -164 0
-135 134 -164 0
-135 -134 164 0
136 134 170 0
136 -134 -170 0
-136 134 -170 0
-136 -134 170 0
137 134 184 0
137 -134 -184 0
-137 134 -184 0
-137 -134 184 0
138 134 245 0
138 -134 -245 0
-138 134 -245 0
-138 -134 245 0
139 134 254 0
139 -134 -254 0
-139 134 -254 0
-139 -134 254 0
141 140 218 0
141 -140 -218 0
-141 140 -218 0
-141 -140 218 0
143 142 176 0
143 -142 -176 0
-143 142 -176 0
-143 -142 176 0
144 142 199 0
144 -142 -199 0
-144 142 -199 0
-144 -142 199 0
145 142 229 0
145 -142 -229 0
-145 142 -229 0
-145 -142 229 0
147 146 258 0
147 -146 -258 0
-147 146 -258 0
-147 -146 258 0
149 148 155 0
149 -148 -155 0
-149 148 -155 0
-149 -148 155 0
150 148 170 0
150 -148 -170 0
-150 148 -170 0
-150 -148 170 0
151 148 186 0
151 -148 -186 0
-151 148 -186 0
-151 -148 186 0
152 148 204 0
152 -148 -204 0
-152 148 -204 0
-152 -148 204 0
153 148 244 0
153 -148 -244 0
-153 148 -244 0
-153 -148 244 0
154 148 267 0
154 -148 -267 0
-154 148 -267 0
-154 -148 267 0
157 156 164 0
157 -156 -164 0
-157 156 -164 0
-157 -156 164 0
158 156 246 0
158 -156 -246 0
-158 156 -246 0
-158 -156 246 0
160 159 204 0
160 -159 -204 0
-160 159 -204 0
-160 -159 204 0
161 159 206 0
161 -159 -206 0
-161 159 -206 0
-161 -159 206 0
163 162 184 0
163 -162 -184 0
-163 162 -184 0
-163 -162 184 0
165 164 170 0
165 -164 -170 0
-165 164 -170 0
-165 -164 170 0
166 164 186 0
166 -164 -186 0
-166 164 -186 0
-166 -164 186 0
167 164 218 0
167 -164 -218 0
-167 164 -218 0
-167 -164 218 0
168 164 224 0
168 -164 -224 0
-168 164 -224 0
-168 -164 224 0
169 164 235 0
169 -164 -235 0
-169 164 -235 0
-169 -164 235 0
171 170 184 0
171 -170 -184 0
-171 170 -184 0
-171 -170 184 0
172 170 249 0
172 -170 -249 0
-172 170 -249 0
-172 -170 249 0
173 170 251 0
173 -170 -251 0
-173 170 -251 0
-173 -170 251 0
174 170 260 0
174 -170 -260 0
-174 170 -260 0
-174 -170 260 0
175 170 268 0
175 -170 -268 0
-175 170 -268 0
-175 -170 268 0
177 176 256 0
177 -176 -256 0
-177 176 -256 0
-177 -176 256 0
178 176 260 0
178 -176 -260 0
-178 176 -260 0
-178 -176 260 0
179 176 266 0
179 -176 -266 0
-179 176 -266 0
-179 -176 266 0
181 180 196 0
181 -180 -196 0
-181 180 -196 0
-181 -180 196 0
182 180 238 0
182 -180 -238 0
-182 180 -238 0
-182 -180 238 0
183 180 260 0
183 -180 -260 0
-183 180 -260 0
-183 -180 260 0
185 184 261 0
185 -184 -261 0
-185 184 -261 0
-185 -184 261 0
187 186 212 0
187 -186 -212 0
-187 186 -212 0
-187 -186 212 0
188 186 267 0
188 -186 -267 0
-188 186 -267 0
-188 -186 267 0
190 189 215 0
190 -189 -215 0
-190 189 -215 0
-190 -189 215 0
191 189 244 0
191 -189 -244 0
-191 189 -244 0
-191 -189 244 0
192 189 245 0
192 -189 -245 0
-192 189 -245 0
-192 -189 245 0
193 189 249 0
193 -189 -249 0
-193 189 -249 0
-193 -189 249 0
194 189 261 0
194 -189 -261 0
-194 189 -261 0
-194 -189 261 0
195 189 268 0
195 -189 -268 0
-195 189 -268 0
-195 -189 268 0
197 196 238 0
197 -196 -238 0
-197 196 -238 0
-197 -196 238 0
198 196 254 0
198 -196 -254 0
-198 196 -254 0
-198 -196 254 0
200 199 238 0
200 -199 -238 0
-200 199 -238 0
-200 -199 238 0
201 199 251 0
201 -199 -251 0
-201 199 -251 0
-201 -199 251 0
202 199 254 0
202 -199 -254 0
-202 199 -254 0
-202 -199 254 0
203 199 267 0
203 -199 -267 0
-203 199 -267 0
-203 -199 267 0
205 204 235 0
205 -204 -235 0
-205 204 -235 0
-205 -204 235 0
208 207 221 0
208 -207 -221 0
-208 207 -221 0
-208 -207 221 0
209 207 229 0
209 -207 -229 0
-209 207 -229 0
-209 -207 229 0
210 207 235 0
210 -207 -235 0
-210 207 -235 0
-210 -207 235 0
211 207 244 0
211 -207 -244 0
-211 207 -244 0
-211 -207 244 0
213 212 215 0
213 -212 -215 0
-213 212 -215 0
-213 -212 215 0
214 212 265 0
214 -212 -265 0
-214 212 -265 0
-214 -212 265 0
216 215 254 0
216 -215 -254 0
-216 215 -254 0
-216 -215 254 0
217 215 256 0
217 -215 -256 0
-217 215 -256 0
-217 -215 256 0
219 218 244 0
219 -218 -244 0
-219 218 -244 0
-219 -218 244 0
220 218 251 0
220 -218 -251 0
-220 218 -251 0
-220 -218 251 0
222 221 249 0
222 -221 -249 0
-222 221 -249 0
-222 -221 249 0
223 221 252 0
223 -221 -252 0
-223 221 -252 0
-223 -221 252 0
225 224 229 0
225 -224 -229 0
-225 224 -229 0
-225 -224 229 0
226 224 249 0
226 -224 -249 0
-226 224 -249 0
-226 -224 249 0
227 224 251 0
227 -224 -251 0
-227 224 -251 0
-227 -224 251 0
228 224 267 0
228 -224 -267 0
-228 224 -267 0
-228 -224 267 0
230 229 261 0
230 -229 -261 0
-230 229 -261 0
-230 -229 261 0
231 229 267 0
231 -229 -267 0
-231 229 -267 0
-231 -229 267 0
233 232 245 0
233 -232 -245 0
-233 232 -245 0
-233 -232 245 0
234 232 256 0
234 -232 -256 0
-234 232 -256 0
-234 -232 256 0
237 236 238 0
237 -236 -238 0
-237 236 -238 0
-237 -236 238 0
239 238 243 0
239 -238 -243 0
-239 238 -243 0
-239 -238 243 0
240 238 251 0
240 -238 -251 0
-240 238 -251 0
-240 -238 251 0
241 238 256 0
241 -238 -256 0
-241 238 -256 0
-241 -238 256 0
242 238 260 0
242 -238 -260 0
-242 238 -260 0
-242 -238 260 0
247 246 254 0
247 -246 -254 0
-247 246 -254 0
-247 -246 254 0
248 246 266 0
248 -246 -266 0
-248 246 -266 0
-248 -246 266 0
250 249 267 0
250 -249 -267 0
-250 249 -267 0
-250 -249 267 0
253 252 268 0
253 -252 -268 0
-253 252 -268 0
-253 -252 268 0
255 254 263 0
255 -254 -263 0
-255 254 -263 0
-255 -254 263 0
257 256 258 0
257 -256 -258 0
-257 256 -258 0
-257 -256 258 0
259 258 261 0
259 -258 -261 0
-259 258 -261 0
-259 -258 261 0
262 261 268 0
262 -261 -268 0
-262 261 -268 0
-262 -261 268 0
264 263 267 0
264 -263 -267 0
-264 263 -267 0
-264 -263 267 0
